TYPE : Vertex Cover
DIMENSION: 24
EDGE_DATA_SECTION:
0 2
0 5
0 8
0 9
0 11
0 13
0 16
0 19
1 7
1 9
1 14
1 18
1 19
1 22
1 23
2 5
2 7
2 8
2 9
2 14
2 15
2 21
3 4
3 5
3 6
3 9
3 10
3 12
3 13
3 14
3 19
4 9
4 10
4 11
4 13
4 15
4 17
4 18
4 23
5 9
5 10
5 19
5 22
5 23
6 8
6 9
6 10
6 17
6 19
7 10
7 11
7 12
7 16
7 18
7 23
8 9
8 16
8 18
8 23
10 13
10 17
10 20
10 21
10 22
11 14
11 19
11 21
11 23
12 15
12 21
12 23
13 18
14 15
14 16
14 17
14 19
14 20
15 18
15 19
15 20
15 21
15 22
16 17
16 19
16 20
17 18
17 19
17 20
17 21
17 22
17 23
18 22
20 22
-1
VERTEX_DEGREE:
8.0 7.0 8.0 9.0 9.0 8.0 6.0 8.0 7.0 8.0 10.0 7.0 5.0 5.0 9.0 9.0 7.0 11.0 8.0 10.0 6.0 6.0 7.0 8.0
VERTEX_COVER:
1 2 3 5 8 9 10 11 12 13 15 16 17 18 19 20 23
EOF
